NAME: random-13-5744
TYPE: TSP
COMMENT: size=13 seed=5744
DIMENSION: 28
EDGE_WEIGHT_TYPE: EUC_2D
NODE_COORD_SECTION
+0 408 771
-0 408 771
+1 100 89
-1 46 579
+2 765 400
-2 666 759
+3 917 142
-3 699 58
+4 103 908
-4 266 527
+5 926 968
-5 695 240
+6 220 330
-6 40 700
+7 421 771
-7 652 978
+8 899 664
-8 124 357
+9 825 288
-9 52 418
+10 2 947
-10 342 415
+11 766 481
-11 316 297
+12 134 226
-12 650 464
+13 597 723
-13 231 28
PRECEDENCE_SECTION
+0 -0
+1 -1
+2 -2
+3 -3
+4 -4
+5 -5
+6 -6
+7 -7
+8 -8
+9 -9
+10 -10
+11 -11
+12 -12
+13 -13
EOF
